(set-info :status sat)
(declare-const symbol_55 (_ BitVec 32))
(declare-const symbol_32 (_ BitVec 32))
(declare-const symbol_25 (_ BitVec 32))
(declare-const symbol_27 (_ BitVec 32))
(declare-const symbol_42 (_ BitVec 32))
(declare-const symbol_17 (_ BitVec 32))
(declare-const symbol_54 (_ BitVec 32))
(declare-const symbol_45 (_ BitVec 32))
(declare-const symbol_49 (_ BitVec 32))
(declare-const symbol_4 (_ BitVec 32))
(declare-const symbol_23 (_ BitVec 32))
(declare-const symbol_15 (_ BitVec 32))
(declare-const symbol_0 (_ BitVec 32))
(declare-const symbol_9 (_ BitVec 32))
(declare-const symbol_36 (_ BitVec 32))
(declare-const symbol_64 (_ BitVec 32))
(declare-const symbol_61 (_ BitVec 32))
(declare-const symbol_34 (_ BitVec 32))
(declare-const symbol_11 (_ BitVec 32))
(declare-const symbol_46 (_ BitVec 32))
(declare-const symbol_38 (_ BitVec 32))
(declare-const symbol_57 (_ BitVec 32))
(declare-const symbol_18 (_ BitVec 32))
(declare-const symbol_40 (_ BitVec 32))
(declare-const symbol_30 (_ BitVec 32))
(declare-const symbol_2 (_ BitVec 32))
(declare-const symbol_51 (_ BitVec 32))
(declare-const symbol_20 (_ BitVec 32))
(declare-const symbol_13 (_ BitVec 32))
(declare-const symbol_7 (_ BitVec 32))
(declare-const symbol_59 (_ BitVec 32))
(declare-const symbol_5 (_ BitVec 32))
(assert (not (= symbol_64 (_ bv15 32))))
(assert (not (not (= symbol_61 (_ bv15 32)))))
(assert (not (not (= symbol_59 (_ bv15 32)))))
(assert (not (not (= symbol_57 (_ bv15 32)))))
(assert (not (not (= symbol_55 (_ bv15 32)))))
(assert (not (not (= symbol_54 (_ bv15 32)))))
(assert (not (not (= symbol_51 (_ bv15 32)))))
(assert (not (not (= symbol_49 (_ bv15 32)))))
(assert (not (not (= symbol_46 (_ bv15 32)))))
(assert (not (not (= symbol_45 (_ bv15 32)))))
(assert (not (not (= symbol_42 (_ bv15 32)))))
(assert (not (not (= symbol_40 (_ bv15 32)))))
(assert (not (not (= symbol_38 (_ bv15 32)))))
(assert (not (not (= symbol_36 (_ bv15 32)))))
(assert (not (not (= symbol_34 (_ bv15 32)))))
(assert (not (not (= symbol_32 (_ bv15 32)))))
(assert (not (not (= symbol_30 (_ bv15 32)))))
(assert (not (not (= symbol_27 (_ bv15 32)))))
(assert (not (not (= symbol_25 (_ bv15 32)))))
(assert (not (not (= symbol_23 (_ bv15 32)))))
(assert (not (not (= symbol_20 (_ bv15 32)))))
(assert (not (not (= symbol_18 (_ bv15 32)))))
(assert (not (not (= symbol_17 (_ bv15 32)))))
(assert (not (not (= symbol_15 (_ bv15 32)))))
(assert (not (not (= symbol_13 (_ bv15 32)))))
(assert (not (not (= symbol_11 (_ bv15 32)))))
(assert (not (not (= symbol_9 (_ bv15 32)))))
(assert (not (not (= symbol_7 (_ bv15 32)))))
(assert (not (not (= symbol_5 (_ bv15 32)))))
(assert (not (not (= symbol_4 (_ bv15 32)))))
(assert (not (not (= symbol_2 (_ bv15 32)))))
(assert (not (not (= symbol_0 (_ bv10 32)))))
(assert (not (= symbol_0 (_ bv15 32))))
(check-sat)